unknown 540 2 540 100000000
2 2 2 2 2 2 2 2 2 2 2 2 2 2 2 2 2 2 2 2 2 2 2 2 2 2 2 2 2 2 2 2 2 2 2 2 2 2 2 2 2 2 2 2 2 2 2 2 2 2 2 2 2 2 2 2 2 2 2 2 2 2 2 2 2 2 2 2 2 2 2 2 2 2 2 2 2 2 2 2 2 2 2 2 2 2 2 2 2 2 2 2 2 2 2 2 2 2 2 2 2 2 2 2 2 2 2 2 2 2 2 2 2 2 2 2 2 2 2 2 2 2 2 2 2 2 2 2 2 2 2 2 2 2 2 2 2 2 2 2 2 2 2 2 2 2 2 2 2 2 2 2 2 2 2 2 2 2 2 2 2 2 2 2 2 2 2 2 2 2 2 2 2 2 2 2 2 2 2 2 2 2 2 2 2 2 2 2 2 2 2 2 2 2 2 2 2 2 2 2 2 2 2 2 2 2 2 2 2 2 2 2 2 2 2 2 2 2 2 2 2 2 2 2 2 2 2 2 2 2 2 2 2 2 2 2 2 2 2 2 2 2 2 2 2 2 2 2 2 2 2 2 2 2 2 2 2 2 2 2 2 2 2 2 2 2 2 2 2 2 2 2 2 2 2 2 2 2 2 2 2 2 2 2 2 2 2 2 2 2 2 2 2 2 2 2 2 2 2 2 2 2 2 2 2 2 2 2 2 2 2 2 2 2 2 2 2 2 2 2 2 2 2 2 2 2 2 2 2 2 2 2 2 2 2 2 2 2 2 2 2 2 2 2 2 2 2 2 2 2 2 2 2 2 2 2 2 2 2 2 2 2 2 2 2 2 2 2 2 2 2 2 2 2 2 2 2 2 2 2 2 2 2 2 2 2 2 2 2 2 2 2 2 2 2 2 2 2 2 2 2 2 2 2 2 2 2 2 2 2 2 2 2 2 2 2 2 2 2 2 2 2 2 2 2 2 2 2 2 2 2 2 2 2 2 2 2 2 2 2 2 2 2 2 2 2 2 2 2 2 2 2 2 2 2 2 2 2 2 2 2 2 2 2 2 2 2 2 2 2 2 2 2 2 2 2 2 2 2 2 2 2 2 2 2 2 2 2 2 2 2 2 2 2 2 2 2 2 2 2 2 2 2 2 2 2 2 2 2 2 2 2 2 2 2 2 2 2 2 2 2 2 2 2 2 2 2 2 2 2 2 2 2 2 2 2 2 2 2 2
1 0 0 1
1 1
1 1 0 1
0 8
1 2 0 2
0 9
1 7
3 299 127 3 0 4
0 0 0 100
0 1 0 100
1 0 0 100
1 1 1 100
3 208 319 4 0 4
0 0 0 100
0 1 0 100
1 0 0 100
1 1 1 100
4 232 173 117 5 0 8
0 0 0 0 100
0 0 1 0 100
0 1 0 0 100
0 1 1 0 100
1 0 0 0 100
1 0 1 0 100
1 1 0 0 100
1 1 1 1 100
4 463 507 209 6 0 8
0 0 0 0 100
0 0 1 0 100
0 1 0 0 100
0 1 1 0 100
1 0 0 0 100
1 0 1 0 100
1 1 0 0 100
1 1 1 1 100
4 27 145 147 7 0 8
0 0 0 0 100
0 0 1 0 100
0 1 0 0 100
0 1 1 0 100
1 0 0 0 100
1 0 1 0 100
1 1 0 0 100
1 1 1 1 100
3 233 180 8 0 4
0 0 1 100
0 1 0 100
1 0 0 100
1 1 0 100
3 273 274 9 0 4
0 0 1 100
0 1 0 100
1 0 0 100
1 1 0 100
3 382 1 10 0 4
0 0 0 100
0 1 0 100
1 0 0 100
1 1 1 100
3 260 261 11 0 4
0 0 1 100
0 1 0 100
1 0 0 100
1 1 0 100
3 176 126 12 0 4
0 0 0 100
0 1 0 100
1 0 0 100
1 1 1 100
1 13 0 1
0 8
3 318 321 14 0 4
0 0 1 100
0 1 0 100
1 0 0 100
1 1 0 100
3 120 124 15 0 4
0 0 0 100
0 1 0 100
1 0 0 100
1 1 1 100
3 518 220 16 0 4
0 0 0 100
0 1 0 100
1 0 0 100
1 1 1 100
3 307 309 17 0 4
0 0 0 100
0 1 0 100
1 0 0 100
1 1 1 100
3 303 304 18 0 4
0 0 1 100
0 1 0 100
1 0 0 100
1 1 0 100
4 383 384 385 19 0 8
0 0 0 1 100
0 0 1 0 100
0 1 0 0 100
0 1 1 0 100
1 0 0 0 100
1 0 1 0 100
1 1 0 0 100
1 1 1 0 100
3 496 529 20 0 4
0 0 0 100
0 1 0 100
1 0 0 100
1 1 1 100
3 106 319 21 0 4
0 0 0 100
0 1 0 100
1 0 0 100
1 1 1 100
3 250 251 22 0 4
0 0 1 100
0 1 0 100
1 0 0 100
1 1 0 100
3 191 192 23 0 4
0 0 0 100
0 1 0 100
1 0 0 100
1 1 1 100
1 24 0 2
0 3
1 7
3 202 203 25 0 4
0 0 0 100
0 1 0 100
1 0 0 100
1 1 1 100
3 362 363 26 0 4
0 0 1 100
0 1 0 100
1 0 0 100
1 1 0 100
3 456 208 27 0 4
0 0 0 100
0 1 0 100
1 0 0 100
1 1 1 100
2 27 28 0 2
0 0 100
1 1 100
3 0 113 29 0 4
0 0 0 100
0 1 0 100
1 0 0 100
1 1 1 100
2 320 30 0 2
0 0 100
1 1 100
3 279 280 31 0 4
0 0 1 100
0 1 0 100
1 0 0 100
1 1 0 100
3 310 175 32 0 4
0 0 0 100
0 1 0 100
1 0 0 100
1 1 1 100
5 337 338 339 340 33 0 16
0 0 0 0 1 100
0 0 0 1 0 100
0 0 1 0 0 100
0 0 1 1 0 100
0 1 0 0 0 100
0 1 0 1 0 100
0 1 1 0 0 100
0 1 1 1 0 100
1 0 0 0 0 100
1 0 0 1 0 100
1 0 1 0 0 100
1 0 1 1 0 100
1 1 0 0 0 100
1 1 0 1 0 100
1 1 1 0 0 100
1 1 1 1 0 100
3 461 430 34 0 4
0 0 0 100
0 1 0 100
1 0 0 100
1 1 1 100
1 35 0 2
0 5
1 8
3 393 529 36 0 4
0 0 0 100
0 1 0 100
1 0 0 100
1 1 1 100
3 296 298 37 0 4
0 0 1 100
0 1 0 100
1 0 0 100
1 1 0 100
2 342 38 0 2
0 0 100
1 1 100
3 358 359 39 0 4
0 0 1 100
0 1 0 100
1 0 0 100
1 1 0 100
3 208 430 40 0 4
0 0 0 100
0 1 0 100
1 0 0 100
1 1 1 100
2 40 41 0 2
0 0 100
1 1 100
3 129 131 42 0 4
0 0 0 100
0 1 0 100
1 0 0 100
1 1 1 100
3 262 263 43 0 4
0 0 1 100
0 1 0 100
1 0 0 100
1 1 0 100
3 392 170 44 0 4
0 0 0 100
0 1 0 100
1 0 0 100
1 1 1 100
3 367 368 45 0 4
0 0 1 100
0 1 0 100
1 0 0 100
1 1 0 100
2 242 46 0 2
0 0 100
1 1 100
3 268 269 47 0 4
0 0 1 100
0 1 0 100
1 0 0 100
1 1 0 100
3 324 325 48 0 4
0 0 1 100
0 1 0 100
1 0 0 100
1 1 0 100
4 165 99 166 49 0 8
0 0 0 0 100
0 0 1 0 100
0 1 0 0 100
0 1 1 0 100
1 0 0 0 100
1 0 1 0 100
1 1 0 0 100
1 1 1 1 100
4 122 159 160 50 0 8
0 0 0 0 100
0 0 1 0 100
0 1 0 0 100
0 1 1 0 100
1 0 0 0 100
1 0 1 0 100
1 1 0 0 100
1 1 1 1 100
3 349 350 51 0 4
0 0 1 100
0 1 0 100
1 0 0 100
1 1 0 100
3 249 76 52 0 4
0 0 1 100
0 1 0 100
1 0 0 100
1 1 0 100
3 255 256 53 0 4
0 0 1 100
0 1 0 100
1 0 0 100
1 1 0 100
4 380 381 0 54 0 8
0 0 0 0 100
0 0 1 0 100
0 1 0 0 100
0 1 1 0 100
1 0 0 0 100
1 0 1 0 100
1 1 0 0 100
1 1 1 1 100
3 394 395 55 0 4
0 0 1 100
0 1 0 100
1 0 0 100
1 1 0 100
3 213 214 56 0 4
0 0 1 100
0 1 0 100
1 0 0 100
1 1 0 100
3 215 107 57 0 4
0 0 0 100
0 1 0 100
1 0 0 100
1 1 1 100
4 216 217 218 58 0 8
0 0 0 1 100
0 0 1 0 100
0 1 0 0 100
0 1 1 0 100
1 0 0 0 100
1 0 1 0 100
1 1 0 0 100
1 1 1 0 100
3 456 476 59 0 4
0 0 0 100
0 1 1 100
1 0 1 100
1 1 1 100
3 24 417 60 0 4
0 0 0 100
0 1 1 100
1 0 1 100
1 1 1 100
3 35 409 61 0 4
0 0 0 100
0 1 1 100
1 0 1 100
1 1 1 100
3 24 479 62 0 4
0 0 0 100
0 1 1 100
1 0 1 100
1 1 1 100
3 35 412 63 0 4
0 0 0 100
0 1 1 100
1 0 1 100
1 1 1 100
3 455 188 64 0 4
0 0 0 100
0 1 1 100
1 0 1 100
1 1 1 100
3 496 61 65 0 4
0 0 0 100
0 1 0 100
1 0 0 100
1 1 1 100
2 67 66 0 2
0 0 100
1 1 100
3 227 510 67 0 4
0 0 0 100
0 1 0 100
1 0 0 100
1 1 1 100
4 468 91 428 68 0 8
0 0 0 0 100
0 0 1 1 100
0 1 0 1 100
0 1 1 1 100
1 0 0 1 100
1 0 1 1 100
1 1 0 1 100
1 1 1 1 100
3 0 319 69 0 4
0 0 0 100
0 1 1 100
1 0 1 100
1 1 1 100
3 466 2 70 0 4
0 0 0 100
0 1 1 100
1 0 1 100
1 1 1 100
3 458 463 71 0 4
0 0 0 100
0 1 1 100
1 0 1 100
1 1 1 100
3 507 431 72 0 4
0 0 0 100
0 1 0 100
1 0 0 100
1 1 1 100
2 74 73 0 2
0 0 100
1 1 100
3 513 128 74 0 4
0 0 0 100
0 1 0 100
1 0 0 100
1 1 1 100
3 430 507 75 0 4
0 0 0 100
0 1 1 100
1 0 1 100
1 1 1 100
2 77 76 0 2
0 0 100
1 1 100
3 490 93 77 0 4
0 0 0 100
0 1 0 100
1 0 0 100
1 1 1 100
3 106 77 78 0 4
0 0 0 100
0 1 1 100
1 0 1 100
1 1 1 100
3 430 425 79 0 4
0 0 0 100
0 1 1 100
1 0 1 100
1 1 1 100
3 1 426 80 0 4
0 0 0 100
0 1 1 100
1 0 1 100
1 1 1 100
3 525 432 81 0 4
0 0 0 100
0 1 1 100
1 0 1 100
1 1 1 100
3 319 424 82 0 4
0 0 0 100
0 1 1 100
1 0 1 100
1 1 1 100
3 272 468 83 0 4
0 0 0 100
0 1 1 100
1 0 1 100
1 1 1 100
3 455 319 84 0 4
0 0 0 100
0 1 1 100
1 0 1 100
1 1 1 100
3 477 187 85 0 4
0 0 0 100
0 1 1 100
1 0 1 100
1 1 1 100
2 87 86 0 2
0 0 100
1 1 100
3 106 516 87 0 4
0 0 0 100
0 1 0 100
1 0 0 100
1 1 1 100
3 24 499 88 0 4
0 0 0 100
0 1 1 100
1 0 1 100
1 1 1 100
3 243 208 89 0 4
0 0 0 100
0 1 1 100
1 0 1 100
1 1 1 100
4 477 35 429 90 0 8
0 0 0 0 100
0 0 1 1 100
0 1 0 1 100
0 1 1 1 100
1 0 0 1 100
1 0 1 1 100
1 1 0 1 100
1 1 1 1 100
3 459 90 91 0 4
0 0 0 100
0 1 0 100
1 0 0 100
1 1 1 100
3 189 433 92 0 4
0 0 0 100
0 1 1 100
1 0 1 100
1 1 1 100
3 35 422 93 0 4
0 0 0 100
0 1 1 100
1 0 1 100
1 1 1 100
4 479 423 189 94 0 8
0 0 0 0 100
0 0 1 1 100
0 1 0 1 100
0 1 1 1 100
1 0 0 1 100
1 0 1 1 100
1 1 0 1 100
1 1 1 1 100
3 456 475 95 0 4
0 0 0 100
0 1 1 100
1 0 1 100
1 1 1 100
3 507 13 96 0 4
0 0 0 100
0 1 1 100
1 0 1 100
1 1 1 100
3 529 411 97 0 4
0 0 0 100
0 1 1 100
1 0 1 100
1 1 1 100
2 99 98 0 2
0 0 100
1 1 100
3 496 209 99 0 4
0 0 1 100
0 1 0 100
1 0 0 100
1 1 0 100
3 188 178 100 0 4
0 0 0 100
0 1 1 100
1 0 1 100
1 1 1 100
3 455 40 101 0 4
0 0 0 100
0 1 1 100
1 0 1 100
1 1 1 100
4 430 476 525 102 0 8
0 0 0 0 100
0 0 1 1 100
0 1 0 1 100
0 1 1 1 100
1 0 0 1 100
1 0 1 1 100
1 1 0 1 100
1 1 1 1 100
3 476 139 103 0 4
0 0 0 100
0 1 1 100
1 0 1 100
1 1 1 100
3 454 208 104 0 4
0 0 0 100
0 1 1 100
1 0 1 100
1 1 1 100
2 107 105 0 2
0 0 100
1 1 100
1 106 0 2
0 3
1 3
3 461 463 107 0 4
0 0 0 100
0 1 0 100
1 0 0 100
1 1 1 100
3 462 475 108 0 4
0 0 0 100
0 1 1 100
1 0 1 100
1 1 1 100
3 2 500 109 0 4
0 0 0 100
0 1 1 100
1 0 1 100
1 1 1 100
2 111 110 0 2
0 0 100
1 1 100
3 455 526 111 0 4
0 0 0 100
0 1 0 100
1 0 0 100
1 1 1 100
3 463 27 112 0 4
0 0 0 100
0 1 1 100
1 0 1 100
1 1 1 100
3 194 458 113 0 4
0 0 0 100
0 1 0 100
1 0 0 100
1 1 1 100
2 115 114 0 2
0 0 100
1 1 100
3 505 136 115 0 4
0 0 0 100
0 1 0 100
1 0 0 100
1 1 1 100
3 1 458 116 0 4
0 0 0 100
0 1 1 100
1 0 1 100
1 1 1 100
3 454 179 117 0 4
0 0 0 100
0 1 0 100
1 0 0 100
1 1 1 100
3 496 181 118 0 4
0 0 0 100
0 1 1 100
1 0 1 100
1 1 1 100
2 120 119 0 2
0 0 100
1 1 100
3 501 182 120 0 4
0 0 0 100
0 1 0 100
1 0 0 100
1 1 1 100
2 122 121 0 2
0 0 100
1 1 100
4 41 486 119 122 0 8
0 0 0 0 100
0 0 1 0 100
0 1 0 0 100
0 1 1 0 100
1 0 0 0 100
1 0 1 0 100
1 1 0 0 100
1 1 1 1 100
3 319 430 123 0 4
0 0 0 100
0 1 1 100
1 0 1 100
1 1 1 100
3 431 137 124 0 4
0 0 0 100
0 1 0 100
1 0 0 100
1 1 1 100
3 462 124 125 0 4
0 0 0 100
0 1 1 100
1 0 1 100
1 1 1 100
3 458 486 126 0 4
0 0 0 100
0 1 0 100
1 0 0 100
1 1 1 100
3 507 509 127 0 4
0 0 0 100
0 1 0 100
1 0 0 100
1 1 1 100
2 129 128 0 2
0 0 100
1 1 100
3 468 2 129 0 4
0 0 0 100
0 1 0 100
1 0 0 100
1 1 1 100
2 131 130 0 2
0 0 100
1 1 100
3 468 220 131 0 4
0 0 1 100
0 1 0 100
1 0 0 100
1 1 0 100
3 507 518 132 0 4
0 0 0 100
0 1 1 100
1 0 1 100
1 1 1 100
3 461 495 133 0 4
0 0 0 100
0 1 0 100
1 0 0 100
1 1 1 100
3 430 107 134 0 4
0 0 0 100
0 1 1 100
1 0 1 100
1 1 1 100
3 458 430 135 0 4
0 0 0 100
0 1 0 100
1 0 0 100
1 1 1 100
3 1 456 136 0 4
0 0 0 100
0 1 1 100
1 0 1 100
1 1 1 100
3 518 420 137 0 4
0 0 0 100
0 1 1 100
1 0 1 100
1 1 1 100
2 139 138 0 2
0 0 100
1 1 100
3 471 70 139 0 4
0 0 0 100
0 1 0 100
1 0 0 100
1 1 1 100
3 456 41 140 0 4
0 0 0 100
0 1 0 100
1 0 0 100
1 1 1 100
2 142 141 0 2
0 0 100
1 1 100
3 496 471 142 0 4
0 0 0 100
0 1 0 100
1 0 0 100
1 1 1 100
4 471 181 475 143 0 8
0 0 0 0 100
0 0 1 1 100
0 1 0 1 100
0 1 1 1 100
1 0 0 1 100
1 0 1 1 100
1 1 0 1 100
1 1 1 1 100
4 2 513 108 144 0 8
0 0 0 0 100
0 0 1 0 100
0 1 0 0 100
0 1 1 0 100
1 0 0 0 100
1 0 1 0 100
1 1 0 0 100
1 1 1 1 100
3 106 458 145 0 4
0 0 0 100
0 1 0 100
1 0 0 100
1 1 1 100
3 507 468 146 0 4
0 0 0 100
0 1 0 100
1 0 0 100
1 1 1 100
3 319 40 147 0 4
0 0 0 100
0 1 0 100
1 0 0 100
1 1 1 100
3 2 13 148 0 4
0 0 0 100
0 1 1 100
1 0 1 100
1 1 1 100
3 396 398 149 0 4
0 0 1 100
0 1 0 100
1 0 0 100
1 1 0 100
4 284 182 253 150 0 8
0 0 0 0 100
0 0 1 0 100
0 1 0 0 100
0 1 1 0 100
1 0 0 0 100
1 0 1 0 100
1 1 0 0 100
1 1 1 1 100
3 288 65 151 0 4
0 0 1 100
0 1 0 100
1 0 0 100
1 1 0 100
3 518 253 152 0 4
0 0 0 100
0 1 0 100
1 0 0 100
1 1 1 100
3 480 92 153 0 4
0 0 0 100
0 1 0 100
1 0 0 100
1 1 1 100
5 399 400 401 402 154 0 16
0 0 0 0 0 100
0 0 0 1 1 100
0 0 1 0 1 100
0 0 1 1 1 100
0 1 0 0 1 100
0 1 0 1 1 100
0 1 1 0 1 100
0 1 1 1 1 100
1 0 0 0 1 100
1 0 0 1 1 100
1 0 1 0 1 100
1 0 1 1 1 100
1 1 0 0 1 100
1 1 0 1 1 100
1 1 1 0 1 100
1 1 1 1 1 100
3 463 275 155 0 4
0 0 0 100
0 1 0 100
1 0 0 100
1 1 1 100
4 13 180 108 156 0 8
0 0 0 0 100
0 0 1 0 100
0 1 0 0 100
0 1 1 0 100
1 0 0 0 100
1 0 1 0 100
1 1 0 0 100
1 1 1 1 100
3 35 457 157 0 4
0 0 0 100
0 1 0 100
1 0 0 100
1 1 1 100
3 479 231 158 0 4
0 0 0 100
0 1 0 100
1 0 0 100
1 1 1 100
5 208 13 264 123 159 0 16
0 0 0 0 0 100
0 0 0 1 0 100
0 0 1 0 0 100
0 0 1 1 0 100
0 1 0 0 0 100
0 1 0 1 0 100
0 1 1 0 0 100
0 1 1 1 0 100
1 0 0 0 0 100
1 0 0 1 0 100
1 0 1 0 0 100
1 0 1 1 0 100
1 1 0 0 0 100
1 1 0 1 0 100
1 1 1 0 0 100
1 1 1 1 1 100
3 526 125 160 0 4
0 0 0 100
0 1 0 100
1 0 0 100
1 1 1 100
3 1 58 161 0 4
0 0 0 100
0 1 0 100
1 0 0 100
1 1 1 100
4 219 106 463 162 0 8
0 0 0 0 100
0 0 1 0 100
0 1 0 0 100
0 1 1 0 100
1 0 0 0 100
1 0 1 0 100
1 1 0 0 100
1 1 1 1 100
3 319 506 163 0 4
0 0 0 100
0 1 0 100
1 0 0 100
1 1 1 100
3 473 137 164 0 4
0 0 0 100
0 1 0 100
1 0 0 100
1 1 1 100
4 391 6 130 165 0 8
0 0 0 0 100
0 0 1 0 100
0 1 0 0 100
0 1 1 0 100
1 0 0 0 100
1 0 1 0 100
1 1 0 0 100
1 1 1 1 100
3 36 132 166 0 4
0 0 0 100
0 1 0 100
1 0 0 100
1 1 1 100
4 462 463 97 167 0 8
0 0 0 0 100
0 0 1 0 100
0 1 0 0 100
0 1 1 0 100
1 0 0 0 100
1 0 1 0 100
1 1 0 0 100
1 1 1 1 100
3 190 462 168 0 4
0 0 1 100
0 1 0 100
1 0 0 100
1 1 0 100
3 461 185 169 0 4
0 0 0 100
0 1 0 100
1 0 0 100
1 1 1 100
3 0 539 170 0 4
0 0 0 100
0 1 0 100
1 0 0 100
1 1 1 100
3 134 148 171 0 4
0 0 0 100
0 1 0 100
1 0 0 100
1 1 1 100
3 466 431 172 0 4
0 0 0 100
0 1 0 100
1 0 0 100
1 1 1 100
3 458 536 173 0 4
0 0 0 100
0 1 0 100
1 0 0 100
1 1 1 100
3 471 523 174 0 4
0 0 0 100
0 1 0 100
1 0 0 100
1 1 1 100
3 13 17 175 0 4
0 0 0 100
0 1 0 100
1 0 0 100
1 1 1 100
3 278 463 176 0 4
0 0 1 100
0 1 0 100
1 0 0 100
1 1 0 100
3 259 111 177 0 4
0 0 0 100
0 1 0 100
1 0 0 100
1 1 1 100
3 1 319 178 0 4
0 0 0 100
0 1 0 100
1 0 0 100
1 1 1 100
2 178 179 0 2
0 0 100
1 1 100
3 237 238 180 0 4
0 0 0 100
0 1 0 100
1 0 0 100
1 1 1 100
3 507 2 181 0 4
0 0 0 100
0 1 0 100
1 0 0 100
1 1 1 100
2 181 182 0 2
0 0 100
1 1 100
4 208 479 46 183 0 8
0 0 0 0 100
0 0 1 0 100
0 1 0 0 100
0 1 1 0 100
1 0 0 0 100
1 0 1 0 100
1 1 0 0 100
1 1 1 1 100
4 313 314 520 184 0 8
0 0 0 0 100
0 0 1 0 100
0 1 0 0 100
0 1 1 0 100
1 0 0 0 100
1 0 1 0 100
1 1 0 0 100
1 1 1 1 100
4 245 246 40 185 0 8
0 0 0 0 100
0 0 1 0 100
0 1 0 0 100
0 1 1 0 100
1 0 0 0 100
1 0 1 0 100
1 1 0 0 100
1 1 1 1 100
3 228 72 186 0 4
0 0 1 100
0 1 0 100
1 0 0 100
1 1 0 100
3 386 154 187 0 4
0 0 0 100
0 1 0 100
1 0 0 100
1 1 1 100
3 457 469 188 0 4
0 0 0 100
0 1 0 100
1 0 0 100
1 1 1 100
2 188 189 0 2
0 0 100
1 1 100
3 27 126 190 0 4
0 0 1 100
0 1 1 100
1 0 1 100
1 1 0 100
4 462 179 188 191 0 8
0 0 0 1 100
0 0 1 0 100
0 1 0 0 100
0 1 1 0 100
1 0 0 0 100
1 0 1 0 100
1 1 0 0 100
1 1 1 0 100
3 430 407 192 0 4
0 0 1 100
0 1 0 100
1 0 0 100
1 1 0 100
3 529 476 193 0 4
0 0 1 100
0 1 0 100
1 0 0 100
1 1 0 100
3 456 520 194 0 4
0 0 1 100
0 1 0 100
1 0 0 100
1 1 0 100
3 1 462 195 0 4
0 0 1 100
0 1 0 100
1 0 0 100
1 1 0 100
4 106 23 62 196 0 8
0 0 0 1 100
0 0 1 1 100
0 1 0 1 100
0 1 1 1 100
1 0 0 1 100
1 0 1 1 100
1 1 0 1 100
1 1 1 0 100
1 197 0 2
0 3
1 8
4 21 41 63 198 0 8
0 0 0 1 100
0 0 1 1 100
0 1 0 1 100
0 1 1 1 100
1 0 0 1 100
1 0 1 1 100
1 1 0 1 100
1 1 1 0 100
3 44 61 199 0 4
0 0 1 100
0 1 1 100
1 0 1 100
1 1 0 100
3 473 513 200 0 4
0 0 1 100
0 1 0 100
1 0 0 100
1 1 0 100
3 507 476 201 0 4
0 0 1 100
0 1 0 100
1 0 0 100
1 1 0 100
4 1 21 188 202 0 8
0 0 0 1 100
0 0 1 0 100
0 1 0 0 100
0 1 1 0 100
1 0 0 0 100
1 0 1 0 100
1 1 0 0 100
1 1 1 0 100
3 27 421 203 0 4
0 0 1 100
0 1 0 100
1 0 0 100
1 1 0 100
3 528 413 204 0 4
0 0 1 100
0 1 0 100
1 0 0 100
1 1 0 100
3 501 181 205 0 4
0 0 1 100
0 1 0 100
1 0 0 100
1 1 0 100
3 430 427 206 0 4
0 0 1 100
0 1 0 100
1 0 0 100
1 1 0 100
3 28 515 207 0 4
0 0 1 100
0 1 0 100
1 0 0 100
1 1 0 100
1 208 0 2
0 9
1 4
1 209 0 2
0 5
1 1
3 526 537 210 0 4
0 0 1 100
0 1 0 100
1 0 0 100
1 1 0 100
3 27 415 211 0 4
0 0 1 100
0 1 0 100
1 0 0 100
1 1 0 100
3 319 463 212 0 4
0 0 1 100
0 1 0 100
1 0 0 100
1 1 0 100
3 430 25 213 0 4
0 0 1 100
0 1 1 100
1 0 1 100
1 1 0 100
3 453 64 214 0 4
0 0 1 100
0 1 1 100
1 0 1 100
1 1 0 100
3 458 486 215 0 4
0 0 1 100
0 1 0 100
1 0 0 100
1 1 0 100
3 458 516 216 0 4
0 0 1 100
0 1 1 100
1 0 1 100
1 1 0 100
3 496 7 217 0 4
0 0 1 100
0 1 1 100
1 0 1 100
1 1 0 100
3 430 57 218 0 4
0 0 1 100
0 1 1 100
1 0 1 100
1 1 0 100
3 179 430 219 0 4
0 0 1 100
0 1 0 100
1 0 0 100
1 1 0 100
1 220 0 1
1 3
3 456 41 221 0 4
0 0 1 100
0 1 0 100
1 0 0 100
1 1 0 100
4 0 84 85 222 0 8
0 0 0 1 100
0 0 1 1 100
0 1 0 1 100
0 1 1 1 100
1 0 0 1 100
1 0 1 1 100
1 1 0 1 100
1 1 1 0 100
3 86 88 223 0 4
0 0 1 100
0 1 1 100
1 0 1 100
1 1 0 100
3 455 403 224 0 4
0 0 1 100
0 1 0 100
1 0 0 100
1 1 0 100
3 461 493 225 0 4
0 0 1 100
0 1 0 100
1 0 0 100
1 1 0 100
3 157 158 226 0 4
0 0 1 100
0 1 1 100
1 0 1 100
1 1 0 100
3 466 471 227 0 4
0 0 1 100
0 1 0 100
1 0 0 100
1 1 0 100
3 65 152 228 0 4
0 0 1 100
0 1 1 100
1 0 1 100
1 1 0 100
4 496 518 139 229 0 8
0 0 0 1 100
0 0 1 0 100
0 1 0 0 100
0 1 1 0 100
1 0 0 0 100
1 0 1 0 100
1 1 0 0 100
1 1 1 0 100
3 463 418 230 0 4
0 0 1 100
0 1 0 100
1 0 0 100
1 1 0 100
1 231 0 2
0 2
1 7
3 514 179 232 0 4
0 0 1 100
0 1 0 100
1 0 0 100
1 1 0 100
3 530 431 233 0 4
0 0 1 100
0 1 1 100
1 0 1 100
1 1 0 100
4 456 8 102 234 0 8
0 0 0 1 100
0 0 1 1 100
0 1 0 1 100
0 1 1 1 100
1 0 0 1 100
1 0 1 1 100
1 1 0 1 100
1 1 1 0 100
3 106 50 235 0 4
0 0 1 100
0 1 1 100
1 0 1 100
1 1 0 100
3 456 89 236 0 4
0 0 1 100
0 1 1 100
1 0 1 100
1 1 0 100
4 507 471 129 237 0 8
0 0 0 1 100
0 0 1 0 100
0 1 0 0 100
0 1 1 0 100
1 0 0 0 100
1 0 1 0 100
1 1 0 0 100
1 1 1 0 100
3 468 139 238 0 4
0 0 1 100
0 1 0 100
1 0 0 100
1 1 0 100
4 319 308 63 239 0 8
0 0 0 1 100
0 0 1 1 100
0 1 0 1 100
0 1 1 1 100
1 0 0 1 100
1 0 1 1 100
1 1 0 1 100
1 1 1 0 100
4 430 5 61 240 0 8
0 0 0 1 100
0 0 1 1 100
0 1 0 1 100
0 1 1 1 100
1 0 0 1 100
1 0 1 1 100
1 1 0 1 100
1 1 1 0 100
3 56 62 241 0 4
0 0 1 100
0 1 1 100
1 0 1 100
1 1 0 100
1 242 0 2
0 3
1 1
3 155 156 243 0 4
0 0 1 100
0 1 1 100
1 0 1 100
1 1 0 100
3 120 164 244 0 4
0 0 1 100
0 1 1 100
1 0 1 100
1 1 0 100
3 463 145 245 0 4
0 0 1 100
0 1 0 100
1 0 0 100
1 1 0 100
3 462 496 246 0 4
0 0 1 100
0 1 0 100
1 0 0 100
1 1 0 100
3 208 319 247 0 4
0 0 1 100
0 1 0 100
1 0 0 100
1 1 0 100
3 1 516 248 0 4
0 0 1 100
0 1 0 100
1 0 0 100
1 1 0 100
3 1 94 249 0 4
0 0 1 100
0 1 1 100
1 0 1 100
1 1 0 100
3 177 73 250 0 4
0 0 1 100
0 1 1 100
1 0 1 100
1 1 0 100
3 109 110 251 0 4
0 0 1 100
0 1 1 100
1 0 1 100
1 1 0 100
4 468 105 116 252 0 8
0 0 0 1 100
0 0 1 1 100
0 1 0 1 100
0 1 1 1 100
1 0 0 1 100
1 0 1 1 100
1 1 0 1 100
1 1 1 0 100
1 253 0 2
0 9
1 3
3 518 177 254 0 4
0 0 1 100
0 1 1 100
1 0 1 100
1 1 0 100
3 466 22 255 0 4
0 0 1 100
0 1 1 100
1 0 1 100
1 1 0 100
3 511 103 256 0 4
0 0 1 100
0 1 1 100
1 0 1 100
1 1 0 100
4 106 462 53 257 0 8
0 0 0 1 100
0 0 1 1 100
0 1 0 1 100
0 1 1 1 100
1 0 0 1 100
1 0 1 1 100
1 1 0 1 100
1 1 1 0 100
4 15 95 101 258 0 8
0 0 0 1 100
0 0 1 1 100
0 1 0 1 100
0 1 1 1 100
1 0 0 1 100
1 0 1 1 100
1 1 0 1 100
1 1 1 0 100
3 463 133 259 0 4
0 0 1 100
0 1 0 100
1 0 0 100
1 1 0 100
3 106 521 260 0 4
0 0 1 100
0 1 1 100
1 0 1 100
1 1 0 100
3 41 84 261 0 4
0 0 1 100
0 1 1 100
1 0 1 100
1 1 0 100
4 1 537 486 262 0 8
0 0 0 1 100
0 0 1 1 100
0 1 0 1 100
0 1 1 1 100
1 0 0 1 100
1 0 1 1 100
1 1 0 1 100
1 1 1 0 100
3 496 11 263 0 4
0 0 1 100
0 1 1 100
1 0 1 100
1 1 0 100
1 264 0 2
0 9
1 6
3 496 471 265 0 4
0 0 1 100
0 1 0 100
1 0 0 100
1 1 0 100
5 458 75 128 141 266 0 16
0 0 0 0 1 100
0 0 0 1 1 100
0 0 1 0 1 100
0 0 1 1 1 100
0 1 0 0 1 100
0 1 0 1 1 100
0 1 1 0 1 100
0 1 1 1 1 100
1 0 0 0 1 100
1 0 0 1 1 100
1 0 1 0 1 100
1 0 1 1 1 100
1 1 0 0 1 100
1 1 0 1 1 100
1 1 1 0 1 100
1 1 1 1 0 100
5 518 41 286 70 267 0 16
0 0 0 0 1 100
0 0 0 1 1 100
0 0 1 0 1 100
0 0 1 1 1 100
0 1 0 0 1 100
0 1 0 1 1 100
0 1 1 0 1 100
0 1 1 1 1 100
1 0 0 0 1 100
1 0 0 1 1 100
1 0 1 0 1 100
1 0 1 1 1 100
1 1 0 0 1 100
1 1 0 1 1 100
1 1 1 0 1 100
1 1 1 1 0 100
4 13 532 69 268 0 8
0 0 0 1 100
0 0 1 1 100
0 1 0 1 100
0 1 1 1 100
1 0 0 1 100
1 0 1 1 100
1 1 0 1 100
1 1 1 0 100
3 0 121 269 0 4
0 0 1 100
0 1 1 100
1 0 1 100
1 1 0 100
3 13 20 270 0 4
0 0 1 100
0 1 0 100
1 0 0 100
1 1 0 100
3 496 404 271 0 4
0 0 1 100
0 1 0 100
1 0 0 100
1 1 0 100
3 172 139 272 0 4
0 0 1 100
0 1 1 100
1 0 1 100
1 1 0 100
3 507 522 273 0 4
0 0 1 100
0 1 1 100
1 0 1 100
1 1 0 100
3 496 220 274 0 4
0 0 1 100
0 1 1 100
1 0 1 100
1 1 0 100
1 275 0 2
0 8
1 8
3 518 9 276 0 4
0 0 1 100
0 1 1 100
1 0 1 100
1 1 0 100
3 496 109 277 0 4
0 0 1 100
0 1 1 100
1 0 1 100
1 1 0 100
3 34 515 278 0 4
0 0 1 100
0 1 1 100
1 0 1 100
1 1 0 100
3 515 112 279 0 4
0 0 1 100
0 1 1 100
1 0 1 100
1 1 0 100
3 106 12 280 0 4
0 0 1 100
0 1 1 100
1 0 1 100
1 1 0 100
4 189 43 62 281 0 8
0 0 0 1 100
0 0 1 1 100
0 1 0 1 100
0 1 1 1 100
1 0 0 1 100
1 0 1 1 100
1 1 0 1 100
1 1 1 0 100
3 30 61 282 0 4
0 0 1 100
0 1 1 100
1 0 1 100
1 1 0 100
3 31 63 283 0 4
0 0 1 100
0 1 1 100
1 0 1 100
1 1 0 100
3 468 471 284 0 4
0 0 1 100
0 1 0 100
1 0 0 100
1 1 0 100
3 476 146 285 0 4
0 0 1 100
0 1 0 100
1 0 0 100
1 1 0 100
1 286 0 1
0 2
3 473 13 287 0 4
0 0 1 100
0 1 0 100
1 0 0 100
1 1 0 100
4 67 74 174 288 0 8
0 0 0 1 100
0 0 1 1 100
0 1 0 1 100
0 1 1 1 100
1 0 0 1 100
1 0 1 1 100
1 1 0 1 100
1 1 1 0 100
4 20 182 61 289 0 8
0 0 0 1 100
0 0 1 1 100
0 1 0 1 100
0 1 1 1 100
1 0 0 1 100
1 0 1 1 100
1 1 0 1 100
1 1 1 0 100
3 253 66 290 0 4
0 0 1 100
0 1 1 100
1 0 1 100
1 1 0 100
3 471 473 291 0 4
0 0 1 100
0 1 0 100
1 0 0 100
1 1 0 100
3 2 476 292 0 4
0 0 1 100
0 1 0 100
1 0 0 100
1 1 0 100
3 468 513 293 0 4
0 0 1 100
0 1 1 100
1 0 1 100
1 1 0 100
3 530 492 294 0 4
0 0 1 100
0 1 1 100
1 0 1 100
1 1 0 100
3 528 431 295 0 4
0 0 1 100
0 1 1 100
1 0 1 100
1 1 0 100
3 529 118 296 0 4
0 0 1 100
0 1 1 100
1 0 1 100
1 1 0 100
1 297 0 2
0 3
1 2
3 496 533 298 0 4
0 0 1 100
0 1 1 100
1 0 1 100
1 1 0 100
3 507 509 299 0 4
0 0 1 100
0 1 0 100
1 0 0 100
1 1 0 100
4 529 3 253 300 0 8
0 0 0 1 100
0 0 1 1 100
0 1 0 1 100
0 1 1 1 100
1 0 0 1 100
1 0 1 1 100
1 1 0 1 100
1 1 1 0 100
3 37 61 301 0 4
0 0 1 100
0 1 1 100
1 0 1 100
1 1 0 100
3 463 509 302 0 4
0 0 1 100
0 1 0 100
1 0 0 100
1 1 0 100
4 463 507 419 303 0 8
0 0 0 1 100
0 0 1 1 100
0 1 0 1 100
0 1 1 1 100
1 0 0 1 100
1 0 1 1 100
1 1 0 1 100
1 1 1 0 100
3 471 524 304 0 4
0 0 1 100
0 1 1 100
1 0 1 100
1 1 0 100
4 496 181 513 305 0 8
0 0 0 1 100
0 0 1 1 100
0 1 0 1 100
0 1 1 1 100
1 0 0 1 100
1 0 1 1 100
1 1 0 1 100
1 1 1 0 100
3 13 18 306 0 4
0 0 1 100
0 1 1 100
1 0 1 100
1 1 0 100
3 529 181 307 0 4
0 0 1 100
0 1 0 100
1 0 0 100
1 1 0 100
1 308 0 2
0 6
1 6
3 528 431 309 0 4
0 0 1 100
0 1 0 100
1 0 0 100
1 1 0 100
3 512 127 310 0 4
0 0 1 100
0 1 0 100
1 0 0 100
1 1 0 100
3 38 61 311 0 4
0 0 1 100
0 1 1 100
1 0 1 100
1 1 0 100
3 32 253 312 0 4
0 0 1 100
0 1 1 100
1 0 1 100
1 1 0 100
3 430 494 313 0 4
0 0 1 100
0 1 0 100
1 0 0 100
1 1 0 100
3 319 40 314 0 4
0 0 1 100
0 1 0 100
1 0 0 100
1 1 0 100
4 514 179 61 315 0 8
0 0 0 1 100
0 0 1 1 100
0 1 0 1 100
0 1 1 1 100
1 0 0 1 100
1 0 1 1 100
1 1 0 1 100
1 1 1 0 100
4 4 538 63 316 0 8
0 0 0 1 100
0 0 1 1 100
0 1 0 1 100
0 1 1 1 100
1 0 0 1 100
1 0 1 1 100
1 1 0 1 100
1 1 1 0 100
4 534 62 64 317 0 8
0 0 0 1 100
0 0 1 1 100
0 1 0 1 100
0 1 1 1 100
1 0 0 1 100
1 0 1 1 100
1 1 0 1 100
1 1 1 0 100
4 454 1 502 318 0 8
0 0 0 1 100
0 0 1 1 100
0 1 0 1 100
0 1 1 1 100
1 0 0 1 100
1 0 1 1 100
1 1 0 1 100
1 1 1 0 100
1 319 0 2
0 4
1 7
1 320 0 1
1 2
3 0 184 321 0 4
0 0 1 100
0 1 1 100
1 0 1 100
1 1 0 100
4 106 14 61 322 0 8
0 0 0 1 100
0 0 1 1 100
0 1 0 1 100
0 1 1 1 100
1 0 0 1 100
1 0 1 1 100
1 1 0 1 100
1 1 1 0 100
3 60 89 323 0 4
0 0 1 100
0 1 1 100
1 0 1 100
1 1 0 100
3 13 82 324 0 4
0 0 1 100
0 1 1 100
1 0 1 100
1 1 0 100
3 319 125 325 0 4
0 0 1 100
0 1 1 100
1 0 1 100
1 1 0 100
4 208 80 95 326 0 8
0 0 0 1 100
0 0 1 1 100
0 1 0 1 100
0 1 1 1 100
1 0 0 1 100
1 0 1 1 100
1 1 0 1 100
1 1 1 0 100
3 526 78 327 0 4
0 0 1 100
0 1 1 100
1 0 1 100
1 1 0 100
3 496 21 328 0 4
0 0 1 100
0 1 0 100
1 0 0 100
1 1 0 100
3 463 515 329 0 4
0 0 1 100
0 1 0 100
1 0 0 100
1 1 0 100
3 462 486 330 0 4
0 0 1 100
0 1 0 100
1 0 0 100
1 1 0 100
1 331 0 2
0 6
1 5
3 1 112 332 0 4
0 0 1 100
0 1 1 100
1 0 1 100
1 1 0 100
3 408 495 333 0 4
0 0 1 100
0 1 1 100
1 0 1 100
1 1 0 100
3 208 114 334 0 4
0 0 1 100
0 1 1 100
1 0 1 100
1 1 0 100
4 518 103 108 335 0 8
0 0 0 1 100
0 0 1 1 100
0 1 0 1 100
0 1 1 1 100
1 0 0 1 100
1 0 1 1 100
1 1 0 1 100
1 1 1 0 100
3 105 275 336 0 4
0 0 1 100
0 1 1 100
1 0 1 100
1 1 0 100
5 106 52 48 71 337 0 16
0 0 0 0 1 100
0 0 0 1 1 100
0 0 1 0 1 100
0 0 1 1 1 100
0 1 0 0 1 100
0 1 0 1 1 100
0 1 1 0 1 100
0 1 1 1 1 100
1 0 0 0 1 100
1 0 0 1 1 100
1 0 1 0 1 100
1 0 1 1 1 100
1 1 0 0 1 100
1 1 0 1 1 100
1 1 1 0 1 100
1 1 1 1 0 100
4 498 73 75 338 0 8
0 0 0 1 100
0 0 1 1 100
0 1 0 1 100
0 1 1 1 100
1 0 0 1 100
1 0 1 1 100
1 1 0 1 100
1 1 1 0 100
4 35 189 508 339 0 8
0 0 0 1 100
0 0 1 1 100
0 1 0 1 100
0 1 1 1 100
1 0 0 1 100
1 0 1 1 100
1 1 0 1 100
1 1 1 0 100
4 458 497 78 340 0 8
0 0 0 1 100
0 0 1 1 100
0 1 0 1 100
0 1 1 1 100
1 0 0 1 100
1 0 1 1 100
1 1 0 1 100
1 1 1 0 100
3 208 430 341 0 4
0 0 1 100
0 1 0 100
1 0 0 100
1 1 0 100
1 342 0 2
0 7
1 8
3 456 495 343 0 4
0 0 1 100
0 1 0 100
1 0 0 100
1 1 0 100
4 455 106 135 344 0 8
0 0 0 1 100
0 0 1 0 100
0 1 0 0 100
0 1 1 0 100
1 0 0 0 100
1 0 1 0 100
1 1 0 0 100
1 1 1 0 100
4 0 519 61 345 0 8
0 0 0 1 100
0 0 1 1 100
0 1 0 1 100
0 1 1 1 100
1 0 0 1 100
1 0 1 1 100
1 1 0 1 100
1 1 1 0 100
3 477 33 346 0 4
0 0 1 100
0 1 1 100
1 0 1 100
1 1 0 100
4 516 80 83 347 0 8
0 0 0 1 100
0 0 1 1 100
0 1 0 1 100
0 1 1 1 100
1 0 0 1 100
1 0 1 1 100
1 1 0 1 100
1 1 1 0 100
3 52 82 348 0 4
0 0 1 100
0 1 1 100
1 0 1 100
1 1 0 100
4 286 68 297 349 0 8
0 0 0 1 100
0 0 1 1 100
0 1 0 1 100
0 1 1 1 100
1 0 0 1 100
1 0 1 1 100
1 1 0 1 100
1 1 1 0 100
4 477 535 71 350 0 8
0 0 0 1 100
0 0 1 1 100
0 1 0 1 100
0 1 1 1 100
1 0 0 1 100
1 0 1 1 100
1 1 0 1 100
1 1 1 0 100
3 119 134 351 0 4
0 0 1 100
0 1 1 100
1 0 1 100
1 1 0 100
3 442 132 352 0 4
0 0 1 100
0 1 1 100
1 0 1 100
1 1 0 100
1 353 0 1
1 1
3 83 102 354 0 4
0 0 1 100
0 1 1 100
1 0 1 100
1 1 0 100
3 458 504 355 0 4
0 0 1 100
0 1 1 100
1 0 1 100
1 1 0 100
3 51 59 356 0 4
0 0 1 100
0 1 1 100
1 0 1 100
1 1 0 100
3 531 60 357 0 4
0 0 1 100
0 1 1 100
1 0 1 100
1 1 0 100
4 71 123 138 358 0 8
0 0 0 1 100
0 0 1 1 100
0 1 0 1 100
0 1 1 1 100
1 0 0 1 100
1 0 1 1 100
1 1 0 1 100
1 1 1 0 100
3 41 143 359 0 4
0 0 1 100
0 1 1 100
1 0 1 100
1 1 0 100
3 28 515 360 0 4
0 0 1 100
0 1 1 100
1 0 1 100
1 1 0 100
3 503 136 361 0 4
0 0 1 100
0 1 1 100
1 0 1 100
1 1 0 100
4 518 52 39 362 0 8
0 0 0 1 100
0 0 1 1 100
0 1 0 1 100
0 1 1 1 100
1 0 0 1 100
1 0 1 1 100
1 1 0 1 100
1 1 1 0 100
3 80 81 363 0 4
0 0 1 100
0 1 1 100
1 0 1 100
1 1 0 100
1 364 0 2
0 2
1 5
3 297 141 365 0 4
0 0 1 100
0 1 1 100
1 0 1 100
1 1 0 100
3 0 143 366 0 4
0 0 1 100
0 1 1 100
1 0 1 100
1 1 0 100
3 477 26 367 0 4
0 0 1 100
0 1 1 100
1 0 1 100
1 1 0 100
3 397 68 368 0 4
0 0 1 100
0 1 1 100
1 0 1 100
1 1 0 100
4 501 516 118 369 0 8
0 0 0 1 100
0 0 1 1 100
0 1 0 1 100
0 1 1 1 100
1 0 0 1 100
1 0 1 1 100
1 1 0 1 100
1 1 1 0 100
3 464 132 370 0 4
0 0 1 100
0 1 1 100
1 0 1 100
1 1 0 100
3 458 517 371 0 4
0 0 1 100
0 1 1 100
1 0 1 100
1 1 0 100
3 13 81 372 0 4
0 0 1 100
0 1 1 100
1 0 1 100
1 1 0 100
3 45 59 373 0 4
0 0 1 100
0 1 1 100
1 0 1 100
1 1 0 100
3 527 60 374 0 4
0 0 1 100
0 1 1 100
1 0 1 100
1 1 0 100
1 375 0 1
1 8
3 24 77 376 0 4
0 0 1 100
0 1 0 100
1 0 0 100
1 1 0 100
4 477 491 93 377 0 8
0 0 0 1 100
0 0 1 1 100
0 1 0 1 100
0 1 1 1 100
1 0 0 1 100
1 0 1 1 100
1 1 0 1 100
1 1 1 0 100
3 460 90 378 0 4
0 0 1 100
0 1 1 100
1 0 1 100
1 1 0 100
3 481 92 379 0 4
0 0 1 100
0 1 1 100
1 0 1 100
1 1 0 100
4 410 27 515 380 0 8
0 0 0 1 100
0 0 1 0 100
0 1 0 0 100
0 1 1 0 100
1 0 0 0 100
1 0 1 0 100
1 1 0 0 100
1 1 1 0 100
3 516 113 381 0 4
0 0 1 100
0 1 0 100
1 0 0 100
1 1 0 100
3 454 516 382 0 4
0 0 1 100
0 1 0 100
1 0 0 100
1 1 0 100
4 319 10 41 383 0 8
0 0 0 1 100
0 0 1 1 100
0 1 0 1 100
0 1 1 1 100
1 0 0 1 100
1 0 1 1 100
1 1 0 1 100
1 1 1 0 100
3 462 116 384 0 4
0 0 1 100
0 1 1 100
1 0 1 100
1 1 0 100
3 515 104 385 0 4
0 0 1 100
0 1 1 100
1 0 1 100
1 1 0 100
1 386 0 2
0 9
1 7
4 106 520 19 387 0 8
0 0 0 1 100
0 0 1 1 100
0 1 0 1 100
0 1 1 1 100
1 0 0 1 100
1 0 1 1 100
1 1 0 1 100
1 1 1 0 100
3 463 466 388 0 4
0 0 1 100
0 1 1 100
1 0 1 100
1 1 0 100
3 98 473 389 0 4
0 0 1 100
0 1 1 100
1 0 1 100
1 1 0 100
3 455 54 390 0 4
0 0 1 100
0 1 1 100
1 0 1 100
1 1 0 100
3 510 471 391 0 4
0 0 1 100
0 1 0 100
1 0 0 100
1 1 0 100
3 458 117 392 0 4
0 0 1 100
0 1 0 100
1 0 0 100
1 1 0 100
3 473 509 393 0 4
0 0 1 100
0 1 0 100
1 0 0 100
1 1 0 100
3 456 104 394 0 4
0 0 1 100
0 1 1 100
1 0 1 100
1 1 0 100
3 461 29 395 0 4
0 0 1 100
0 1 1 100
1 0 1 100
1 1 0 100
3 69 208 396 0 4
0 0 1 100
0 1 1 100
1 0 1 100
1 1 0 100
3 365 366 397 0 4
0 0 1 100
0 1 0 100
1 0 0 100
1 1 0 100
3 462 55 398 0 4
0 0 1 100
0 1 1 100
1 0 1 100
1 1 0 100
4 97 6 16 399 0 8
0 0 0 1 100
0 0 1 1 100
0 1 0 1 100
0 1 1 1 100
1 0 0 1 100
1 0 1 1 100
1 1 0 1 100
1 1 1 0 100
4 42 529 96 400 0 8
0 0 0 1 100
0 0 1 1 100
0 1 0 1 100
0 1 1 1 100
1 0 0 1 100
1 0 1 1 100
1 1 0 1 100
1 1 1 0 100
3 13 49 401 0 4
0 0 1 100
0 1 1 100
1 0 1 100
1 1 0 100
3 149 515 402 0 4
0 0 1 100
0 1 1 100
1 0 1 100
1 1 0 100
2 493 403 0 2
0 0 100
1 1 100
2 209 404 0 2
0 0 100
1 1 100
2 183 405 0 2
0 0 100
1 1 100
2 186 406 0 2
0 0 100
1 1 100
2 100 407 0 2
0 0 100
1 1 100
4 328 329 330 408 0 8
0 0 0 0 100
0 0 1 0 100
0 1 0 0 100
0 1 1 0 100
1 0 0 0 100
1 0 1 0 100
1 1 0 0 100
1 1 1 1 100
2 85 409 0 2
0 0 100
1 1 100
2 34 410 0 2
0 0 100
1 1 100
2 148 411 0 2
0 0 100
1 1 100
2 88 412 0 2
0 0 100
1 1 100
2 209 413 0 2
0 0 100
1 1 100
2 183 414 0 2
0 0 100
1 1 100
2 505 415 0 2
0 0 100
1 1 100
2 469 416 0 2
0 0 100
1 1 100
2 78 417 0 2
0 0 100
1 1 100
2 180 418 0 2
0 0 100
1 1 100
3 529 473 419 0 4
0 0 0 100
0 1 0 100
1 0 0 100
1 1 1 100
2 96 420 0 2
0 0 100
1 1 100
2 100 421 0 2
0 0 100
1 1 100
2 499 422 0 2
0 0 100
1 1 100
2 480 423 0 2
0 0 100
1 1 100
2 79 424 0 2
0 0 100
1 1 100
2 180 425 0 2
0 0 100
1 1 100
2 94 426 0 2
0 0 100
1 1 100
2 112 427 0 2
0 0 100
1 1 100
2 101 428 0 2
0 0 100
1 1 100
2 187 429 0 2
0 0 100
1 1 100
1 430 0 2
0 9
1 4
2 419 431 0 2
0 0 100
1 1 100
2 79 432 0 2
0 0 100
1 1 100
2 62 433 0 2
0 0 100
1 1 100
3 360 361 434 0 4
0 0 0 100
0 1 1 100
1 0 1 100
1 1 1 100
3 193 473 435 0 4
0 0 0 100
0 1 0 100
1 0 0 100
1 1 1 100
3 200 201 436 0 4
0 0 0 100
0 1 0 100
1 0 0 100
1 1 1 100
4 210 211 87 437 0 8
0 0 0 0 100
0 0 1 0 100
0 1 0 0 100
0 1 1 0 100
1 0 0 0 100
1 0 1 0 100
1 1 0 0 100
1 1 1 1 100
3 222 223 438 0 4
0 0 0 100
0 1 1 100
1 0 1 100
1 1 1 100
4 226 24 416 439 0 8
0 0 0 0 100
0 0 1 1 100
0 1 0 1 100
0 1 1 1 100
1 0 0 1 100
1 0 1 1 100
1 1 0 1 100
1 1 1 1 100
3 229 230 440 0 4
0 0 0 100
0 1 0 100
1 0 0 100
1 1 1 100
3 244 430 441 0 4
0 0 0 100
0 1 1 100
1 0 1 100
1 1 1 100
3 167 144 442 0 4
0 0 0 100
0 1 0 100
1 0 0 100
1 1 1 100
3 265 142 443 0 4
0 0 0 100
0 1 0 100
1 0 0 100
1 1 1 100
3 69 70 444 0 4
0 0 1 100
0 1 1 100
1 0 1 100
1 1 0 100
3 221 140 445 0 4
0 0 0 100
0 1 0 100
1 0 0 100
1 1 1 100
3 276 277 446 0 4
0 0 0 100
0 1 1 100
1 0 1 100
1 1 1 100
4 289 290 406 447 0 8
0 0 0 0 100
0 0 1 1 100
0 1 0 1 100
0 1 1 1 100
1 0 0 1 100
1 0 1 1 100
1 1 0 1 100
1 1 1 1 100
3 305 306 448 0 4
0 0 0 100
0 1 1 100
1 0 1 100
1 1 1 100
4 332 333 334 449 0 8
0 0 0 0 100
0 0 1 1 100
0 1 0 1 100
0 1 1 1 100
1 0 0 1 100
1 0 1 1 100
1 1 0 1 100
1 1 1 1 100
3 351 352 450 0 4
0 0 0 100
0 1 1 100
1 0 1 100
1 1 1 100
4 376 91 153 451 0 8
0 0 0 0 100
0 0 1 0 100
0 1 0 0 100
0 1 1 0 100
1 0 0 0 100
1 0 1 0 100
1 1 0 0 100
1 1 1 1 100
5 387 388 389 390 452 0 16
0 0 0 0 0 100
0 0 0 1 1 100
0 0 1 0 1 100
0 0 1 1 1 100
0 1 0 0 1 100
0 1 0 1 1 100
0 1 1 0 1 100
0 1 1 1 1 100
1 0 0 0 1 100
1 0 0 1 1 100
1 0 1 0 1 100
1 0 1 1 1 100
1 1 0 0 1 100
1 1 0 1 1 100
1 1 1 0 1 100
1 1 1 1 1 100
4 206 207 126 453 0 8
0 0 0 0 100
0 0 1 0 100
0 1 0 0 100
0 1 1 0 100
1 0 0 0 100
1 0 1 0 100
1 1 0 0 100
1 1 1 1 100
2 0 454 0 2
0 0 100
1 1 100
2 1 455 0 2
0 0 100
1 1 100
2 106 456 0 2
0 0 100
1 1 100
4 161 162 115 457 0 8
0 0 0 0 100
0 0 1 0 100
0 1 0 0 100
0 1 1 0 100
1 0 0 0 100
1 0 1 0 100
1 1 0 0 100
1 1 1 1 100
2 208 458 0 2
0 0 100
1 1 100
2 460 459 0 2
0 0 100
1 1 100
4 1 106 47 460 0 8
0 0 0 0 100
0 0 1 0 100
0 1 0 0 100
0 1 1 0 100
1 0 0 0 100
1 0 1 0 100
1 1 0 0 100
1 1 1 1 100
2 319 461 0 2
0 0 100
1 1 100
2 430 462 0 2
0 0 100
1 1 100
2 496 463 0 2
0 0 100
1 1 100
3 171 144 464 0 4
0 0 0 100
0 1 0 100
1 0 0 100
1 1 1 100
3 322 323 465 0 4
0 0 1 100
0 1 0 100
1 0 0 100
1 1 0 100
2 507 466 0 2
0 0 100
1 1 100
3 345 346 467 0 4
0 0 1 100
0 1 0 100
1 0 0 100
1 1 0 100
2 518 468 0 2
0 0 100
1 1 100
4 204 205 72 469 0 8
0 0 0 0 100
0 0 1 0 100
0 1 0 0 100
0 1 1 0 100
1 0 0 0 100
1 0 1 0 100
1 1 0 0 100
1 1 1 1 100
3 356 357 470 0 4
0 0 1 100
0 1 0 100
1 0 0 100
1 1 0 100
2 529 471 0 2
0 0 100
1 1 100
3 373 374 472 0 4
0 0 1 100
0 1 0 100
1 0 0 100
1 1 0 100
2 2 473 0 2
0 0 100
1 1 100
4 377 378 379 474 0 8
0 0 0 1 100
0 0 1 0 100
0 1 0 0 100
0 1 1 0 100
1 0 0 0 100
1 0 1 0 100
1 1 0 0 100
1 1 1 0 100
3 319 496 475 0 4
0 0 0 100
0 1 0 100
1 0 0 100
1 1 1 100
2 13 476 0 2
0 0 100
1 1 100
2 24 477 0 2
0 0 100
1 1 100
4 150 151 186 478 0 8
0 0 0 0 100
0 0 1 0 100
0 1 0 0 100
0 1 1 0 100
1 0 0 0 100
1 0 1 0 100
1 1 0 0 100
1 1 1 1 100
2 35 479 0 2
0 0 100
1 1 100
3 257 258 480 0 4
0 0 1 100
0 1 0 100
1 0 0 100
1 1 0 100
2 480 481 0 2
0 0 100
1 1 100
2 331 482 0 2
0 0 100
1 1 100
3 300 301 483 0 4
0 0 1 100
0 1 0 100
1 0 0 100
1 1 0 100
3 311 312 484 0 4
0 0 1 100
0 1 0 100
1 0 0 100
1 1 0 100
5 315 316 317 405 485 0 16
0 0 0 0 1 100
0 0 0 1 0 100
0 0 1 0 0 100
0 0 1 1 0 100
0 1 0 0 0 100
0 1 0 1 0 100
0 1 1 0 0 100
0 1 1 1 0 100
1 0 0 0 0 100
1 0 0 1 0 100
1 0 1 0 0 100
1 0 1 1 0 100
1 1 0 0 0 100
1 1 0 1 0 100
1 1 1 0 0 100
1 1 1 1 0 100
2 475 486 0 2
0 0 100
1 1 100
5 196 198 199 414 487 0 16
0 0 0 0 1 100
0 0 0 1 0 100
0 0 1 0 0 100
0 0 1 1 0 100
0 1 0 0 0 100
0 1 0 1 0 100
0 1 1 0 0 100
0 1 1 1 0 100
1 0 0 0 0 100
1 0 0 1 0 100
1 0 1 0 0 100
1 0 1 1 0 100
1 1 0 0 0 100
1 1 0 1 0 100
1 1 1 0 0 100
1 1 1 1 0 100
4 239 240 241 488 0 8
0 0 0 1 100
0 0 1 0 100
0 1 0 0 100
0 1 1 0 100
1 0 0 0 100
1 0 1 0 100
1 1 0 0 100
1 1 1 0 100
4 281 282 283 489 0 8
0 0 0 1 100
0 0 1 0 100
0 1 0 0 100
0 1 1 0 100
1 0 0 0 100
1 0 1 0 100
1 1 0 0 100
1 1 1 0 100
4 234 235 236 490 0 8
0 0 0 1 100
0 0 1 0 100
0 1 0 0 100
0 1 1 0 100
1 0 0 0 100
1 0 1 0 100
1 1 0 0 100
1 1 1 0 100
2 490 491 0 2
0 0 100
1 1 100
3 291 292 492 0 4
0 0 0 100
0 1 0 100
1 0 0 100
1 1 1 100
3 0 106 493 0 4
0 0 0 100
0 1 0 100
1 0 0 100
1 1 1 100
3 1 208 494 0 4
0 0 0 100
0 1 0 100
1 0 0 100
1 1 1 100
2 494 495 0 2
0 0 100
1 1 100
1 496 0 2
0 3
1 8
3 335 336 497 0 4
0 0 1 100
0 1 0 100
1 0 0 100
1 1 0 100
3 326 327 498 0 4
0 0 1 100
0 1 0 100
1 0 0 100
1 1 0 100
3 469 231 499 0 4
0 0 0 100
0 1 0 100
1 0 0 100
1 1 1 100
3 513 518 500 0 4
0 0 0 100
0 1 0 100
1 0 0 100
1 1 1 100
2 500 501 0 2
0 0 100
1 1 100
3 461 135 502 0 4
0 0 0 100
0 1 0 100
1 0 0 100
1 1 1 100
3 34 4 503 0 4
0 0 0 100
0 1 0 100
1 0 0 100
1 1 1 100
2 364 504 0 2
0 0 100
1 1 100
3 212 462 505 0 4
0 0 0 100
0 1 0 100
1 0 0 100
1 1 1 100
4 341 343 140 506 0 8
0 0 0 0 100
0 0 1 0 100
0 1 0 0 100
0 1 1 0 100
1 0 0 0 100
1 0 1 0 100
1 1 0 0 100
1 1 1 1 100
1 507 0 2
0 4
1 4
2 353 508 0 2
0 0 100
1 1 100
3 518 2 509 0 4
0 0 0 100
0 1 0 100
1 0 0 100
1 1 1 100
2 509 510 0 2
0 0 100
1 1 100
3 252 254 511 0 4
0 0 1 100
0 1 0 100
1 0 0 100
1 1 0 100
3 529 13 512 0 4
0 0 0 100
0 1 0 100
1 0 0 100
1 1 1 100
2 512 513 0 2
0 0 100
1 1 100
3 0 208 514 0 4
0 0 0 100
0 1 0 100
1 0 0 100
1 1 1 100
3 319 462 515 0 4
0 0 0 100
0 1 0 100
1 0 0 100
1 1 1 100
2 515 516 0 2
0 0 100
1 1 100
3 369 370 517 0 4
0 0 1 100
0 1 0 100
1 0 0 100
1 1 0 100
1 518 0 2
0 9
1 3
4 344 133 163 519 0 8
0 0 0 0 100
0 0 1 0 100
0 1 0 0 100
0 1 1 0 100
1 0 0 0 100
1 0 1 0 100
1 1 0 0 100
1 1 1 1 100
3 195 147 520 0 4
0 0 1 100
0 1 1 100
1 0 1 100
1 1 0 100
3 247 248 521 0 4
0 0 0 100
0 1 0 100
1 0 0 100
1 1 1 100
3 270 271 522 0 4
0 0 0 100
0 1 0 100
1 0 0 100
1 1 1 100
3 285 287 523 0 4
0 0 0 100
0 1 0 100
1 0 0 100
1 1 1 100
3 302 146 524 0 4
0 0 0 100
0 1 0 100
1 0 0 100
1 1 1 100
3 486 208 525 0 4
0 0 0 100
0 1 0 100
1 0 0 100
1 1 1 100
2 525 526 0 2
0 0 100
1 1 100
3 371 372 527 0 4
0 0 1 100
0 1 0 100
1 0 0 100
1 1 0 100
3 466 518 528 0 4
0 0 0 100
0 1 0 100
1 0 0 100
1 1 1 100
1 529 0 2
0 2
1 6
2 528 530 0 2
0 0 100
1 1 100
3 354 355 531 0 4
0 0 1 100
0 1 0 100
1 0 0 100
1 1 0 100
3 266 267 532 0 4
0 0 1 100
0 1 0 100
1 0 0 100
1 1 0 100
4 293 294 295 533 0 8
0 0 0 1 100
0 0 1 0 100
0 1 0 0 100
0 1 1 0 100
1 0 0 0 100
1 0 1 0 100
1 1 0 0 100
1 1 1 0 100
4 168 87 169 534 0 8
0 0 0 0 100
0 0 1 0 100
0 1 0 0 100
0 1 1 0 100
1 0 0 0 100
1 0 1 0 100
1 1 0 0 100
1 1 1 1 100
3 347 348 535 0 4
0 0 1 100
0 1 0 100
1 0 0 100
1 1 0 100
3 224 225 536 0 4
0 0 0 100
0 1 0 100
1 0 0 100
1 1 1 100
3 106 430 537 0 4
0 0 0 100
0 1 0 100
1 0 0 100
1 1 1 100
2 537 538 0 2
0 0 100
1 1 100
2 197 539 0 2
0 0 100
1 1 100
